SCIP version 0.82 [precision: 8 byte] [memory: block] [mode: optimized] [LP solver: SOPLEX 1.3.0]
Copyright (c) 2002-2006 Konrad-Zuse-Zentrum fuer Informationstechnik Berlin (ZIB)

reading parameter file <scip.set>

read problem </ufs/psxjm3/instances/random_5.ctt.e.zpl>
============

****************************************************
* Zuse Institute Mathematical Programming Language *
* Release 2.04  Copyright (C)2005 by Thorsten Koch *
****************************************************

original problem has 20908 variables (20840 bin, 68 int, 0 impl, 0 cont) and 7940 constraints

solve problem
=============

LP Solver <SOPLEX 1.3.0>: dual feasibility tolerance cannot be set -- tolerance of SCIP and LP solver may differ
LP Solver <SOPLEX 1.3.0>: barrier convergence tolerance cannot be set -- tolerance of SCIP and LP solver may differ
LP Solver <SOPLEX 1.3.0>: fastmip setting not available -- SCIP parameter has no effect
LP Solver <SOPLEX 1.3.0>: scaling not available -- SCIP parameter has no effect
LP Solver <SOPLEX 1.3.0>: presolving not available -- SCIP parameter has no effect
transformed problem has 20908 variables (20840 bin, 68 int, 0 impl, 0 cont) and 7940 constraints
   7940 constraints of type <linear>

presolving:
(round 1) 2748 del vars, 321 del conss, 2748 chg bounds, 0 chg sides, 0 chg coeffs, 0 upgd conss, 0 impls, 4158 clqs
(round 2) 2748 del vars, 602 del conss, 2748 chg bounds, 0 chg sides, 0 chg coeffs, 0 upgd conss, 0 impls, 4158 clqs
(round 3) 2748 del vars, 2506 del conss, 2748 chg bounds, 1907 chg sides, 0 chg coeffs, 0 upgd conss, 0 impls, 4158 clqs
(round 4) 2748 del vars, 2506 del conss, 2748 chg bounds, 1907 chg sides, 0 chg coeffs, 5057 upgd conss, 0 impls, 4158 clqs
(round 5) 2748 del vars, 2586 del conss, 2748 chg bounds, 1907 chg sides, 24 chg coeffs, 5057 upgd conss, 0 impls, 4158 clqs
   (25.7s) probing: 100/18092 (0.6%) - 0 fixings, 0 aggregations, 22 implications, 0 bound changes
   (28.6s) probing: 200/18092 (1.1%) - 0 fixings, 0 aggregations, 24 implications, 0 bound changes
presolving (6 rounds):
 2748 deleted vars, 2586 deleted constraints, 2748 tightened bounds, 0 added holes, 1907 changed sides, 24 changed coefficients
 48 implications, 4158 cliques
presolved problem has 18160 variables (18092 bin, 68 int, 0 impl, 0 cont) and 5354 constraints
   2000 constraints of type <knapsack>
   2673 constraints of type <setppc>
    377 constraints of type <linear>
    304 constraints of type <logicor>
objective value is always integral
Presolving Time: 28.18

 time | node  | left  |LP iter| mem |mdpt |frac |vars |cons |ccons|cols |rows |cuts |confs|strbr|  dualbound   | primalbound  |  gap   
 69.0s|     1 |     0 |  8003 | 147M|   0 | 677 |  18k|5354 |5354 |  18k|5354 |   0 |   0 |   0 | 6.992000e+03 |      --      |    Inf 
 74.2s|     1 |     0 |  8622 | 149M|   0 | 747 |  18k|5354 |5354 |  18k|5360 |   6 |   0 |   0 | 6.992000e+03 |      --      |    Inf 
 81.1s|     1 |     0 |  9492 | 149M|   0 | 749 |  18k|5354 |5354 |  18k|5366 |  12 |   0 |   0 | 6.992000e+03 |      --      |    Inf 
 93.2s|     1 |     0 | 11090 | 149M|   0 | 736 |  18k|5354 |5354 |  18k|5372 |  18 |   0 |   0 | 6.992000e+03 |      --      |    Inf 
  100s|     1 |     0 | 11901 | 149M|   0 | 801 |  18k|5354 |5354 |  18k|5378 |  24 |   0 |   0 | 6.992000e+03 |      --      |    Inf 
  104s|     1 |     0 | 12222 | 149M|   0 | 763 |  18k|5354 |5354 |  18k|5380 |  26 |   0 |   0 | 6.992000e+03 |      --      |    Inf 
  377s|     1 |     2 | 23772 | 149M|   0 | 763 |  18k|5354 |5354 |  18k|5380 |  26 |   0 |  29 | 6.992000e+03 |      --      |    Inf 
 2079s|   100 |    97 |138075 | 151M|  97 | 408 |  18k|5354 |4552 |  18k|5374 |  26 |   0 | 204 | 6.992000e+03 |      --      |    Inf 
 2907s|   200 |   197 |241306 | 153M| 137 | 499 |  18k|5354 |4772 |  18k|5374 |  26 |   0 | 252 | 6.992000e+03 |      --      |    Inf 
 3973s|   300 |   297 |372834 | 155M| 137 | 613 |  18k|5354 |4818 |  18k|5374 |  26 |   0 | 332 | 6.992000e+03 |      --      |    Inf 
 5100s|   400 |   397 |530051 | 156M| 137 | 526 |  18k|5354 |4623 |  18k|5374 |  26 |   0 | 411 | 6.992000e+03 |      --      |    Inf 
(node 409) solution of LP 3308 not optimal (pfeas=1, dfeas=0) -- solving again with tighter feasibility tolerance
(node 409) solution of LP 3313 not optimal (pfeas=1, dfeas=0) -- solving again with tighter feasibility tolerance
(node 409) solution of LP 3401 not optimal (pfeas=1, dfeas=0) -- solving again with tighter feasibility tolerance
(node 409) solution of LP 3409 not optimal (pfeas=1, dfeas=0) -- solving again with tighter feasibility tolerance
(node 409) solution of LP 3410 not optimal (pfeas=1, dfeas=0) -- solving again from scratch
(node 409) solution of LP 3458 not optimal (pfeas=1, dfeas=0) -- solving again with tighter feasibility tolerance
(node 409) solution of LP 3459 not optimal (pfeas=1, dfeas=0) -- solving again from scratch
(node 409) solution of LP 3472 not optimal (pfeas=1, dfeas=0) -- solving again with tighter feasibility tolerance
(node 409) solution of LP 3473 not optimal (pfeas=1, dfeas=0) -- solving again from scratch
 6403s|   500 |   497 |691780 | 157M| 137 | 388 |  18k|5354 |4381 |  18k|5374 |  26 |   0 | 490 | 6.992000e+03 |      --      |    Inf 

SCIP Status        : solving was interrupted [time limit reached]
Solving Time (sec) : 7201.86
Solving Nodes      : 582
Primal Bound       : +1.00000000000000e+20 (0 solutions)
Dual Bound         : +6.99200000000000e+03
Gap                : infinite

primal solution:
================

no solution available

Statistics
==========

SCIP Status        : solving was interrupted [time limit reached]
Solving Time       :    7201.86
Original Problem   :
  Problem name     : random_5.ctt.e.zpl
  Variables        : 20908 (20840 binary, 68 integer, 0 implicit integer, 0 continuous)
  Constraints      : 7940 initial, 7940 maximal
Presolved Problem  :
  Problem name     : t_random_5.ctt.e.zpl
  Variables        : 18160 (18092 binary, 68 integer, 0 implicit integer, 0 continuous)
  Constraints      : 5354 initial, 5354 maximal
Presolvers         :       Time  FixedVars   AggrVars   ChgTypes  ChgBounds   AddHoles    DelCons   ChgSides   ChgCoefs
  trivial          :       0.01          0          0          0          0          0          0          0          0
  inttobinary      :       0.00          0          0          0          0          0          0          0          0
  dualfix          :       0.03          0          0          0          0          0          0          0          0
  implics          :       0.01          0          0          0          0          0          0          0          0
  probing          :       6.08          0          0          0          0          0          0          0          0
  knapsack         :      14.10          0          0          0          0          0          0          0         24
  setppc           :       0.23          0          0          0          0          0         80          0          0
  linear           :       7.37       2748          0          0       2748          0       2506       1907          0
  logicor          :       0.01          0          0          0          0          0          0          0          0
  root node        :          -          0          -          -          0          -          -          -          -
Constraints        :     Number  #Separate #Propagate    #EnfoLP    #EnfoPS    Cutoffs    DomReds       Cuts      Conss   Children
  integral         :          0          0          0        582          0          0          2          0          0       1160
  knapsack         :       2000          6       4430          0          0          0         59          0          0          0
  setppc           :       2673          6       4430          0          0          0      41666          0          0          0
  linear           :        377          6       3552          0          0          0      10073          0          0          0
  logicor          :        304          6        942          0          0          0        193          0          0          0
Constraint Timings :  TotalTime   Separate  Propagate     EnfoLP     EnfoPS
  integral         :    2707.72       0.00       0.00    2707.72       0.00
  knapsack         :       2.11       1.03       1.08       0.00       0.00
  setppc           :       1.20       0.01       1.19       0.00       0.00
  linear           :       7.58       0.42       7.16       0.00       0.00
  logicor          :       0.02       0.00       0.02       0.00       0.00
Propagators        :       Time      Calls    Cutoffs    DomReds
  rootredcost      :       0.01          0          0          0
  pseudoobj        :       0.02       4002          0          0
Conflict Analysis  :       Time      Calls    Success  Conflicts   Literals    Reconvs ReconvLits   LP Iters
  propagation      :       0.00          0          0          0        0.0          0        0.0          -
  infeasible LP    :       0.00          0          0          0        0.0          0        0.0          0
  bound exceed. LP :       0.00          0          0          0        0.0          0        0.0          0
  strong branching :       0.00          0          0          0        0.0          0        0.0          0
  pseudo solution  :       0.00          0          0          0        0.0          0        0.0          -
  applied globally :          -          -          -          0        0.0          -          -          -
  applied locally  :          -          -          -          0        0.0          -          -          -
Separators         :       Time      Calls    Cutoffs    DomReds       Cuts      Conss
  cut pool         :       0.00          5          -          -          0          -    (maximal pool size: 26)
  redcost          :       2.12        587          0          0          0          0
  impliedbounds    :       0.03          6          0          0          0          0
  intobj           :       0.00          0          0          0          0          0
  gomory           :       1.69          6          0          0          0          0
  strongcg         :       1.91          6          0          0          0          0
  cmir             :       3.88          6          0          0          0          0
  clique           :       0.35          6          0          0         26          0
Pricers            :       Time      Calls       Vars
  problem variables:       0.00          0          0
Branching Rules    :       Time      Calls    Cutoffs    DomReds       Cuts      Conss   Children
  relpscost        :    2707.72        582          0          2          0          0       1160
  pscost           :       0.00          0          0          0          0          0          0
  inference        :       0.00          0          0          0          0          0          0
  mostinf          :       0.00          0          0          0          0          0          0
  leastinf         :       0.00          0          0          0          0          0          0
  fullstrong       :       0.00          0          0          0          0          0          0
  allfullstrong    :       0.00          0          0          0          0          0          0
Primal Heuristics  :       Time      Calls      Found
  LP solutions     :       0.00          -          0
  pseudo solutions :       0.00          -          0
  linesearchdiving :       0.00          0          0
  guideddiving     :       0.00          0          0
  crossover        :       0.00          0          0
  coefdiving       :      32.82          1          0
  pscostdiving     :     133.75          1          0
  fracdiving       :     258.31          1          0
  feaspump         :      83.68          1          0
  objpscostdiving  :     354.57          1          0
  rootsoldiving    :      39.05          1          0
  simplerounding   :       2.14        592          0
  rounding         :       6.60        592          0
  shifting         :       4.01         63          0
  fixandinfer      :       0.00          0          0
  intdiving        :       0.00          0          0
  octane           :       0.00          0          0
  rins             :       0.00          0          0
  localbranching   :       0.00          0          0
LP                 :       Time      Calls Iterations  Iter/call   Iter/sec
  primal LP        :       0.03          0          0       0.00       0.00
  dual LP          :    3530.94        589     631977    1072.97     178.98
  barrier LP       :       0.00          0          0       0.00          -
  diving/probing LP:     866.71       3174     158623      49.98     183.02
  strong branching :    2707.34        553     454102     821.16     167.73
    (at root node) :          -         29      27520     948.97          -
  conflict analysis:       0.00          0          0       0.00          -
B&B Tree           :
  number of runs   :          1
  nodes            :        582
  nodes (total)    :        582
  nodes left       :        579
  max depth        :        137
  max depth (total):        137
  backtracks       :          5 (0.9%)
  delayed cutoffs  :          0
  repropagations   :          0 (0 domain reductions, 0 cutoffs)
  avg switch length:       1.88
  switching time   :       0.69
Solution           :
  Solutions found  :          0 (0 improvements)
  Primal Bound     :          -
  Dual Bound       : +6.99200000000000e+03
  Gap              :   infinite
  Root Dual Bound  : +6.99200000000000e+03
